
Gurobi 9.5.1 (linux64) logging started Sat Jul  2 16:13:03 2022

Set parameter LogFile to value "../results/logs/log_com-dblp.ungraph_3_250_2022_07_02_15_52.log"
Gurobi Optimizer version 9.5.1 build v9.5.1rc2 (linux64)
Thread count: 8 physical cores, 8 logical processors, using up to 8 threads
Optimize a model with 22021 rows, 634160 columns and 227191 nonzeros
Model fingerprint: 0xe2e34da5
Coefficient statistics:
  Matrix range     [1e+00, 3e+00]
  Objective range  [1e+00, 1e+00]
  Bounds range     [1e+00, 1e+00]
  RHS range        [1e+00, 2e+02]

Concurrent LP optimizer: primal simplex, dual simplex, and barrier
Showing barrier log only...

Presolve removed 10837 rows and 616824 columns
Presolve time: 0.33s
Presolved: 11184 rows, 17336 columns, 45633 nonzeros

Ordering time: 0.00s

Barrier statistics:
 AA' NZ     : 1.134e+04
 Factor NZ  : 2.132e+04 (roughly 4 MB of memory)
 Factor Ops : 1.513e+05 (less than 1 second per iteration)
 Threads    : 1

                  Objective                Residual
Iter       Primal          Dual         Primal    Dual     Compl     Time
   0   2.51031528e+05  9.83256066e+05  2.99e+03 6.96e+01  3.10e+03     0s
   1   2.22737812e+05  2.14733701e+06  1.15e+03 6.82e-13  1.17e+03     0s
   2   2.10331395e+05  1.53535555e+06  1.38e+02 1.17e-12  1.84e+02     0s
   3   2.09007296e+05  5.91217600e+05  2.09e+01 1.49e-12  3.42e+01     0s
   4   2.08955310e+05  3.33456356e+05  5.62e-01 1.82e-12  8.00e+00     0s
   5   2.09128567e+05  2.82757433e+05  1.20e-01 1.69e-12  4.64e+00     0s
   6   2.09361103e+05  2.28071735e+05  8.59e-03 7.78e-13  1.17e+00     0s
   7   2.09612156e+05  2.11565687e+05  3.55e-15 1.82e-13  1.23e-01     0s
   8   2.09928084e+05  2.11176423e+05  2.31e-14 1.23e-13  7.83e-02     0s
   9   2.10008659e+05  2.10925021e+05  1.60e-14 1.14e-13  5.75e-02     0s
  10   2.10176035e+05  2.10622538e+05  4.09e-14 1.14e-13  2.80e-02     0s
  11   2.10310483e+05  2.10572752e+05  1.42e-14 1.14e-13  1.65e-02     0s
  12   2.10336731e+05  2.10533284e+05  1.78e-15 1.14e-13  1.23e-02     0s
  13   2.10355275e+05  2.10469350e+05  2.22e-14 2.84e-14  7.16e-03     0s
  14   2.10395930e+05  2.10437375e+05  8.88e-16 1.14e-13  2.60e-03     0s
  15   2.10410938e+05  2.10418868e+05  4.44e-15 1.14e-13  4.98e-04     0s
  16   2.10414967e+05  2.10415207e+05  2.58e-14 2.84e-14  1.50e-05     0s
  17   2.10415116e+05  2.10415117e+05  1.33e-14 1.14e-13  1.87e-08     0s
  18   2.10415117e+05  2.10415117e+05  2.16e-12 5.65e-14  5.82e-14     0s

Barrier solved model in 18 iterations and 0.39 seconds (0.26 work units)
Optimal objective 2.10415117e+05

Crossover log...

     932 DPushes remaining with DInf 0.0000000e+00                 0s
       0 DPushes remaining with DInf 0.0000000e+00                 0s

     170 PPushes remaining with PInf 0.0000000e+00                 0s
       0 PPushes remaining with PInf 0.0000000e+00                 0s

  Push phase complete: Pinf 0.0000000e+00, Dinf 2.5102143e-13      0s

Iteration    Objective       Primal Inf.    Dual Inf.      Time
     580    2.1041512e+05   0.000000e+00   0.000000e+00      0s

Use crossover to convert LP symmetric solution to basic solution...
Crossover log...

       0 DPushes remaining with DInf 0.0000000e+00                 0s

     130 PPushes remaining with PInf 0.0000000e+00                 0s
       0 PPushes remaining with PInf 0.0000000e+00                 0s

  Push phase complete: Pinf 0.0000000e+00, Dinf 1.4638291e-13      0s

Iteration    Objective       Primal Inf.    Dual Inf.      Time
     730    2.1041512e+05   0.000000e+00   0.000000e+00      1s

Solved with primal simplex
Solved in 3003 iterations and 0.56 seconds (0.28 work units)
Optimal objective  2.104151166e+05
